db/data/2066426070271721915118369743237091250.z3.out
-------------------
2500.114553898
